AntColony/def/new/bizerte.vrp
NAME : A-n37-k6
COMMENT : (Augerat et al, Min no of trucks: 1, Optimal value: 949)
TYPE : CVRP
DIMENSION : 34
EDGE_WEIGHT_TYPE : EUC_2D 
CAPACITY : 100
NODE_COORD_SECTION "  			 			  			 			  			 			  			 			
1  			 			569572  			 			4111958  			 			  			 			
2  			 			576340  			 			4125083  			 			  			 			  			 			  			 			
3  			 			570946  			 			4112990 			 			  			 			  			 			  			 			
4  			 			599904  			 			4118934 			 			  			 			  			 			  			 			
5  			 			557921  			 			4100245  			 			  			 			  			 			  			 			
6  			 			591248  			 			4113987 			 			  			 			  			 			  			 			
7  			 			522560  			 			4101354 			 			  			 			  			 			  			 			
8  			 			553462  			 			4055643 			 			  			 			  			 			  			 			
9  			 			507678  			 			4092747 			 			  			 			  			 			  			 			
10  			 			559909  			 			4044172  			 			  			 			  			 			  			 			
11  			 			596073  			 			4043948 			 			  			 			  			 			  			 			
12  			 			678275  			 			4072161 			 			  			 			  			 			  			 			
13  			 			686488  			 			4080676  			 			  			 			
14  			 			679346  			 			4102600  			 			  			 			
15  			 			632336  			 			4063712  			 			  			 			
16  			 			641941  			 			4061787  			 			  			 			
17  			 			603270  			 			4073363 			 			  			 			  			 			  			 			
18  			 			603401  			 			4074101 			 			  			 			  			 			  			 			
19  			 			596891  			 			4074452 			 			  			 			  			 			  			 			
20  			 			603337  			 			4074152  			 			  			 			
21  			 			603468  			 			4074054 			 			  			 			  			 			  			 			
22  			 			603290  			 			4073394  			 			  			 			
23  			 			603245  			 			4073914 			 			  			 			  			 			  			 			
24  			 			604232  			 			4073015  			 			  			 			
25  			 			603723  			 			4073640  			 			  			 			  			 			  			 			
26  			 			604969  			 			4071764  			 			  			 			
27  			 			603193  			 			4073537  			 			  			 			
28  			 			615044  			 			4080844  			 			  			 			
29  			 			605775  			 			4073614  			  			 			  			 			  			 			
30  			 			605044  			 			4081090 			 			  			 			  			 			  			 			
31  			 			617253  			 			4076724  			 			  			 			
32  			 			605441  			 			4080885  			 			  			 			
33  			 			611396  			 			4065911 			 			  			 			  			 			  			 			
34  			 			573781  			 			4078100  			 			  			 			
  			 			  			 			  			 			  			 			
DEMAND_SECTION   			 			  			 			  			 			  			 			
1  			 			0  			 			  			 			  			 			
2  			 			54  			 			  			 			  			 			
3  			 			90  			 			  			 			  			 			
4  			 			14  			 			  			 			  			 			
5  			 			11  			 			  			 			  			 			
6  			 			9  			 			  			 			  			 			
7  			 			10  			 			  			 			  			 			
8  			 			11  			 			  			 			  			 			
9  			 			5  			 			  			 			  			 			
10  			 			1  			 			  			 			  			 			
11  			 			64  			 			  			 			  			 			
12  			 			32  			 			  			 			  			 			
13  			 			11  			 			  			 			  			 			
14  			 			4  			 			  			 			  			 			
15  			 			7  			 			  			 			  			 			
16  			 			7  			 			  			 			  			 			
17  			 			72  			 			  			 			  			 			
18  			 			125  			 			  			 			  			 			
19  			 			3  			 			  			 			  			 			
20  			 			49  			 			  			 			  			 			
21  			 			5  			 			  			 			  			 			
22  			 			29  			 			  			 			  			 			
23  			 			18  			 			  			 			  			 			
24  			 			44  			 			  			 			  			 			
25  			 			261  			 			  			 			  			 			
26  			 			51  			 			  			 			  			 			
27  			 			221  			 			  			 			  			 			
28  			 			195  			 			  			 			  			 			
29  			 			250  			 			  			 			  			 			
30  			 			45  			 			  			 			  			 			
31  			 			9  			 			  			 			  			 			
32  			 			13  			 			  			 			  			 			
33  			 			30  			 			  			 			  			 			
34  			 			9  			 			  			 			  			 			
DEPOT_SECTION   			 			  			 			  			 			  			 			
1  			 			  			 			  			 			  			 			
-1  			 			  			 			  			 			  			 			
EOF   			 			  			 			  			 			  			 			
